<number of tasks>
20

<cycle time>
1000

<order strength>
0,505


<task times>
1 127
2 98
3 45
4 145
5 212
6 95
7 210
8 132
9 270
10 159
11 123
12 212
13 142
14 95
15 218
16 32
17 49
18 243
19 160
20 170

<precedence relations>
1,4
1,5
1,6
1,7
2,6
2,7
3,6
3,7
4,8
5,10
6,9
6,11
7,11
8,14
9,12
10,13
11,14
11,15
12,17
13,16
14,17
14,18
14,19
15,18
15,19
16,19
17,20
18,20

<end>
